maximize
obj: 709 x_1_ + 1045 x_2_ + 493 x_3_ + 798 x_4_ + 982 x_5_ + 583 x_6_ + 1020 x_7_ + 485 x_8_ + 672 x_9_ + 581 x_10_ + 902 x_11_ + 872 x_12_ + 1099 x_13_ + 537 x_14_ + 1056 x_15_ + 791 x_16_ + 668 x_17_ + 448 x_18_ + 626 x_19_ + 946 x_20_ + 848 x_21_ + 994 x_22_ + 838 x_23_ + 1074 x_24_ + 592 x_25_ + 978 x_26_ + 884 x_27_ + 1029 x_28_ + 1272 x_29_ + 454 x_30_ + 544 x_31_ + 660 x_32_ + 1015 x_33_ + 754 x_34_ + 659 x_35_ + 768 x_36_ + 577 x_37_ + 1063 x_38_ + 542 x_39_ + 1131 x_40_ + 534 x_41_ + 979 x_42_ + 916 x_43_ + 1185 x_44_ + 632 x_45_ + 1144 x_46_ + 780 x_47_ + 784 x_48_ + 740 x_49_ + 268 x_50_ + 667 x_51_ + 687 x_52_ + 602 x_53_ + 1057 x_54_ + 42 x_55_ + 330 x_56_ + 941 x_57_ + 870 x_58_ + 1015 x_59_ + 611 x_60_ + 894 x_61_ + 493 x_62_ + 474 x_63_ + 339 x_64_ + 446 x_65_ + 618 x_66_ + 602 x_67_ + 692 x_68_ + 1052 x_69_ + 874 x_70_ + 1049 x_71_ + 773 x_72_ + 869 x_73_ + 918 x_74_ + 915 x_75_ + 847 x_76_ + 844 x_77_ + 940 x_78_ + 659 x_79_ + 621 x_80_ + 1001 x_81_ + 1071 x_82_ + 284 x_83_ + 808 x_84_ + 1112 x_85_ + 445 x_86_ + 867 x_87_ + 651 x_88_ + 681 x_89_ + 820 x_90_ + 946 x_91_ + 620 x_92_ + 715 x_93_ + 1028 x_94_ + 959 x_95_ + 590 x_96_ + 797 x_97_ + 722 x_98_ + 631 x_99_ + 195 x_100_ + 1000 s_1_ + 1000 s_2_ + 1000 s_3_ + 1000 s_4_ + 1000 s_5_ - 1000 ss_1_ - 1000 ss_2_ - 1000 ss_3_ - 1000 ss_4_ - 1000 ss_5_
subject to
c6: 1 s_1_ + 502 x_1_ + 66 x_2_ + 229 x_3_ + 725 x_4_ + 461 x_5_ + 533 x_6_ + 658 x_7_ + 340 x_8_ + 95 x_9_ + 501 x_10_ + 697 x_11_ + 437 x_12_ + 172 x_13_ + 549 x_14_ + 801 x_15_ + 408 x_16_ + 866 x_17_ + 475 x_18_ + 253 x_19_ + 467 x_20_ + 809 x_21_ + 802 x_22_ + 683 x_23_ + 738 x_24_ + 160 x_25_ + 41 x_26_ + 432 x_27_ + 538 x_28_ + 342 x_29_ + 957 x_30_ + 515 x_31_ + 995 x_32_ + 824 x_33_ + 255 x_34_ + 712 x_35_ + 241 x_36_ + 541 x_37_ + 806 x_38_ + 577 x_39_ + 313 x_40_ + 595 x_41_ + 899 x_42_ + 676 x_43_ + 772 x_44_ + 560 x_45_ + 342 x_46_ + 791 x_47_ + 253 x_48_ + 400 x_49_ + 180 x_50_ + 60 x_51_ + 722 x_52_ + 945 x_53_ + 164 x_54_ + 116 x_55_ + 429 x_56_ + 856 x_57_ + 102 x_58_ + 573 x_59_ + 623 x_60_ + 633 x_61_ + 59 x_62_ + 235 x_63_ + 737 x_64_ + 376 x_65_ + 370 x_66_ + 528 x_67_ + 546 x_68_ + 699 x_69_ + 352 x_70_ + 523 x_71_ + 327 x_72_ + 412 x_73_ + 869 x_74_ + 841 x_75_ + 758 x_76_ + 320 x_77_ + 230 x_78_ + 6 x_79_ + 409 x_80_ + 432 x_81_ + 678 x_82_ + 562 x_83_ + 595 x_84_ + 778 x_85_ + 364 x_86_ + 908 x_87_ + 188 x_88_ + 48 x_89_ + 291 x_90_ + 984 x_91_ + 620 x_92_ + 627 x_93_ + 571 x_94_ + 720 x_95_ + 393 x_96_ + 119 x_97_ + 43 x_98_ + 587 x_99_ + 448 x_100_ <= 12440
c7: 1 s_2_ + 430 x_1_ + 323 x_2_ + 712 x_3_ + 645 x_4_ + 833 x_5_ + 762 x_6_ + 352 x_7_ + 411 x_8_ + 715 x_9_ + 141 x_10_ + 887 x_11_ + 331 x_12_ + 388 x_13_ + 546 x_14_ + 817 x_15_ + 813 x_16_ + 541 x_17_ + 144 x_18_ + 300 x_19_ + 311 x_20_ + 264 x_21_ + 591 x_22_ + 657 x_23_ + 848 x_24_ + 101 x_25_ + 862 x_26_ + 282 x_27_ + 66 x_28_ + 101 x_29_ + 401 x_30_ + 322 x_31_ + 363 x_32_ + 471 x_33_ + 750 x_34_ + 871 x_35_ + 523 x_36_ + 163 x_37_ + 428 x_38_ + 265 x_39_ + 284 x_40_ + 338 x_41_ + 346 x_42_ + 616 x_43_ + 467 x_44_ + 401 x_45_ + 464 x_46_ + 239 x_47_ + 712 x_48_ + 866 x_49_ + 129 x_50_ + 202 x_51_ + 710 x_52_ + 353 x_53_ + 715 x_54_ + 176 x_55_ + 395 x_56_ + 71 x_57_ + 644 x_58_ + 440 x_59_ + 247 x_60_ + 616 x_61_ + 68 x_62_ + 598 x_63_ + 12 x_64_ + 421 x_65_ + 83 x_66_ + 938 x_67_ + 602 x_68_ + 793 x_69_ + 745 x_70_ + 924 x_71_ + 535 x_72_ + 20 x_73_ + 303 x_74_ + 586 x_75_ + 953 x_76_ + 929 x_77_ + 536 x_78_ + 301 x_79_ + 396 x_80_ + 87 x_81_ + 287 x_82_ + 575 x_83_ + 290 x_84_ + 714 x_85_ + 407 x_86_ + 717 x_87_ + 189 x_88_ + 880 x_89_ + 813 x_90_ + 996 x_91_ + 717 x_92_ + 283 x_93_ + 702 x_94_ + 797 x_95_ + 650 x_96_ + 280 x_97_ + 344 x_98_ + 592 x_99_ + 512 x_100_ <= 12184
c8: 1 s_3_ + 828 x_1_ + 553 x_2_ + 337 x_3_ + 862 x_4_ + 225 x_5_ + 41 x_6_ + 933 x_7_ + 845 x_8_ + 980 x_9_ + 433 x_10_ + 139 x_11_ + 809 x_12_ + 174 x_13_ + 769 x_14_ + 819 x_15_ + 641 x_16_ + 460 x_17_ + 906 x_18_ + 816 x_19_ + 998 x_20_ + 112 x_21_ + 608 x_22_ + 653 x_23_ + 341 x_24_ + 963 x_25_ + 453 x_26_ + 968 x_27_ + 909 x_28_ + 985 x_29_ + 509 x_30_ + 184 x_31_ + 807 x_32_ + 459 x_33_ + 726 x_34_ + 336 x_35_ + 800 x_36_ + 818 x_37_ + 779 x_38_ + 1 x_39_ + 656 x_40_ + 344 x_41_ + 556 x_42_ + 177 x_43_ + 736 x_44_ + 263 x_45_ + 304 x_46_ + 542 x_47_ + 813 x_48_ + 326 x_49_ + 718 x_50_ + 601 x_51_ + 591 x_52_ + 216 x_53_ + 918 x_54_ + 394 x_55_ + 512 x_56_ + 378 x_57_ + 970 x_58_ + 751 x_59_ + 957 x_60_ + 639 x_61_ + 131 x_62_ + 116 x_63_ + 494 x_64_ + 662 x_65_ + 166 x_66_ + 345 x_67_ + 725 x_68_ + 135 x_69_ + 843 x_70_ + 878 x_71_ + 121 x_72_ + 600 x_73_ + 569 x_74_ + 735 x_75_ + 263 x_76_ + 425 x_77_ + 803 x_78_ + 632 x_79_ + 5 x_80_ + 529 x_81_ + 609 x_82_ + 328 x_83_ + 647 x_84_ + 575 x_85_ + 510 x_86_ + 413 x_87_ + 541 x_88_ + 960 x_89_ + 932 x_90_ + 378 x_91_ + 34 x_92_ + 515 x_93_ + 946 x_94_ + 226 x_95_ + 805 x_96_ + 430 x_97_ + 969 x_98_ + 148 x_99_ + 14 x_100_ <= 13875
c9: 1 s_4_ + 839 x_1_ + 674 x_2_ + 396 x_3_ + 128 x_4_ + 569 x_5_ + 631 x_6_ + 725 x_7_ + 552 x_8_ + 365 x_9_ + 292 x_10_ + 649 x_11_ + 177 x_12_ + 372 x_13_ + 75 x_14_ + 76 x_15_ + 614 x_16_ + 205 x_17_ + 33 x_18_ + 644 x_19_ + 660 x_20_ + 996 x_21_ + 517 x_22_ + 905 x_23_ + 989 x_24_ + 284 x_25_ + 498 x_26_ + 332 x_27_ + 589 x_28_ + 842 x_29_ + 337 x_30_ + 656 x_31_ + 185 x_32_ + 834 x_33_ + 128 x_34_ + 291 x_35_ + 789 x_36_ + 702 x_37_ + 935 x_38_ + 883 x_39_ + 66 x_40_ + 721 x_41_ + 673 x_42_ + 897 x_43_ + 906 x_44_ + 408 x_45_ + 645 x_46_ + 519 x_47_ + 244 x_48_ + 595 x_49_ + 15 x_50_ + 464 x_51_ + 93 x_52_ + 254 x_53_ + 627 x_54_ + 284 x_55_ + 436 x_56_ + 787 x_57_ + 50 x_58_ + 224 x_59_ + 220 x_60_ + 459 x_61_ + 124 x_62_ + 607 x_63_ + 64 x_64_ + 889 x_65_ + 172 x_66_ + 115 x_67_ + 904 x_68_ + 924 x_69_ + 169 x_70_ + 841 x_71_ + 110 x_72_ + 536 x_73_ + 962 x_74_ + 192 x_75_ + 295 x_76_ + 507 x_77_ + 879 x_78_ + 456 x_79_ + 433 x_80_ + 865 x_81_ + 400 x_82_ + 762 x_83_ + 985 x_84_ + 591 x_85_ + 502 x_86_ + 291 x_87_ + 601 x_88_ + 31 x_89_ + 211 x_90_ + 207 x_91_ + 228 x_92_ + 160 x_93_ + 523 x_94_ + 328 x_95_ + 10 x_96_ + 707 x_97_ + 423 x_98_ + 324 x_99_ + 194 x_100_ <= 11869
c10: 1 s_5_ + 949 x_1_ + 517 x_2_ + 55 x_3_ + 290 x_4_ + 784 x_5_ + 129 x_6_ + 21 x_7_ + 599 x_8_ + 792 x_9_ + 529 x_10_ + 46 x_11_ + 542 x_12_ + 766 x_13_ + 707 x_14_ + 864 x_15_ + 166 x_16_ + 878 x_17_ + 808 x_18_ + 61 x_19_ + 475 x_20_ + 657 x_21_ + 933 x_22_ + 257 x_23_ + 596 x_24_ + 378 x_25_ + 685 x_26_ + 506 x_27_ + 223 x_28_ + 928 x_29_ + 376 x_30_ + 421 x_31_ + 369 x_32_ + 577 x_33_ + 194 x_34_ + 341 x_35_ + 824 x_36_ + 73 x_37_ + 948 x_38_ + 618 x_39_ + 764 x_40_ + 469 x_41_ + 682 x_42_ + 275 x_43_ + 609 x_44_ + 290 x_45_ + 873 x_46_ + 147 x_47_ + 926 x_48_ + 772 x_49_ + 7 x_50_ + 860 x_51_ + 963 x_52_ + 543 x_53_ + 119 x_54_ + 95 x_55_ + 764 x_56_ + 560 x_57_ + 563 x_58_ + 959 x_59_ + 743 x_60_ + 57 x_61_ + 641 x_62_ + 48 x_63_ + 63 x_64_ + 87 x_65_ + 145 x_66_ + 338 x_67_ + 463 x_68_ + 947 x_69_ + 611 x_70_ + 494 x_71_ + 190 x_72_ + 762 x_73_ + 851 x_74_ + 717 x_75_ + 908 x_76_ + 758 x_77_ + 714 x_78_ + 123 x_79_ + 240 x_80_ + 712 x_81_ + 59 x_82_ + 7 x_83_ + 199 x_84_ + 900 x_85_ + 18 x_86_ + 183 x_87_ + 324 x_88_ + 938 x_89_ + 301 x_90_ + 325 x_91_ + 915 x_92_ + 302 x_93_ + 472 x_94_ + 659 x_95_ + 595 x_96_ + 79 x_97_ + 345 x_98_ + 584 x_99_ + 31 x_100_ <= 12243
c1: 1 ss_1_ + 556 x_1_ + 125 x_2_ + 736 x_3_ + 557 x_4_ + 301 x_5_ + 6 x_6_ + 111 x_7_ + 16 x_8_ + 704 x_9_ + 952 x_10_ + 408 x_11_ + 492 x_12_ + 163 x_13_ + 938 x_14_ + 315 x_15_ + 949 x_16_ + 670 x_17_ + 1000 x_18_ + 457 x_19_ + 816 x_20_ + 357 x_21_ + 495 x_22_ + 916 x_23_ + 852 x_24_ + 614 x_25_ + 161 x_26_ + 60 x_27_ + 382 x_28_ + 373 x_29_ + 570 x_30_ + 182 x_31_ + 934 x_32_ + 129 x_33_ + 542 x_34_ + 767 x_35_ + 964 x_36_ + 896 x_37_ + 350 x_38_ + 178 x_39_ + 557 x_40_ + 975 x_41_ + 70 x_42_ + 226 x_43_ + 356 x_44_ + 404 x_45_ + 79 x_46_ + 833 x_47_ + 616 x_48_ + 575 x_49_ + 987 x_50_ + 340 x_51_ + 794 x_52_ + 321 x_53_ + 337 x_54_ + 580 x_55_ + 920 x_56_ + 425 x_57_ + 170 x_58_ + 955 x_59_ + 581 x_60_ + 739 x_61_ + 622 x_62_ + 473 x_63_ + 789 x_64_ + 946 x_65_ + 499 x_66_ + 666 x_67_ + 546 x_68_ + 630 x_69_ + 997 x_70_ + 462 x_71_ + 750 x_72_ + 841 x_73_ + 795 x_74_ + 2 x_75_ + 522 x_76_ + 778 x_77_ + 42 x_78_ + 714 x_79_ + 645 x_80_ + 855 x_81_ + 396 x_82_ + 768 x_83_ + 392 x_84_ + 141 x_85_ + 544 x_86_ + 847 x_87_ + 263 x_88_ + 325 x_89_ + 227 x_90_ + 765 x_91_ + 128 x_92_ + 10 x_93_ + 973 x_94_ + 162 x_95_ + 743 x_96_ + 208 x_97_ + 223 x_98_ + 981 x_99_ + 143 x_100_ >= 13162
c2: 1 ss_2_ + 413 x_1_ + 794 x_2_ + 494 x_3_ + 821 x_4_ + 348 x_5_ + 961 x_6_ + 63 x_7_ + 962 x_8_ + 799 x_9_ + 242 x_10_ + 352 x_11_ + 337 x_12_ + 111 x_13_ + 559 x_14_ + 889 x_15_ + 595 x_16_ + 914 x_17_ + 576 x_18_ + 312 x_19_ + 323 x_20_ + 153 x_21_ + 888 x_22_ + 287 x_23_ + 627 x_24_ + 888 x_25_ + 634 x_26_ + 424 x_27_ + 365 x_28_ + 374 x_29_ + 85 x_30_ + 650 x_31_ + 265 x_32_ + 711 x_33_ + 204 x_34_ + 816 x_35_ + 595 x_36_ + 111 x_37_ + 707 x_38_ + 774 x_39_ + 138 x_40_ + 687 x_41_ + 131 x_42_ + 279 x_43_ + 775 x_44_ + 191 x_45_ + 217 x_46_ + 181 x_47_ + 750 x_48_ + 890 x_49_ + 776 x_50_ + 484 x_51_ + 655 x_52_ + 662 x_53_ + 662 x_54_ + 995 x_55_ + 248 x_56_ + 718 x_57_ + 321 x_58_ + 533 x_59_ + 391 x_60_ + 81 x_61_ + 253 x_62_ + 879 x_63_ + 540 x_64_ + 959 x_65_ + 118 x_66_ + 989 x_67_ + 781 x_68_ + 678 x_69_ + 787 x_70_ + 424 x_71_ + 721 x_72_ + 623 x_73_ + 833 x_74_ + 986 x_75_ + 141 x_76_ + 66 x_77_ + 983 x_78_ + 449 x_79_ + 654 x_80_ + 458 x_81_ + 675 x_82_ + 515 x_83_ + 718 x_84_ + 486 x_85_ + 881 x_86_ + 726 x_87_ + 386 x_88_ + 796 x_89_ + 229 x_90_ + 398 x_91_ + 335 x_92_ + 624 x_93_ + 283 x_94_ + 182 x_95_ + 589 x_96_ + 153 x_97_ + 945 x_98_ + 272 x_99_ + 849 x_100_ >= 13388
c3: 1 ss_3_ + 907 x_1_ + 447 x_2_ + 158 x_3_ + 840 x_4_ + 440 x_5_ + 413 x_6_ + 75 x_7_ + 682 x_8_ + 936 x_9_ + 933 x_10_ + 753 x_11_ + 47 x_12_ + 488 x_13_ + 649 x_14_ + 475 x_15_ + 88 x_16_ + 464 x_17_ + 50 x_18_ + 485 x_19_ + 672 x_20_ + 254 x_21_ + 171 x_22_ + 548 x_23_ + 202 x_24_ + 227 x_25_ + 673 x_26_ + 888 x_27_ + 176 x_28_ + 82 x_29_ + 811 x_30_ + 292 x_31_ + 522 x_32_ + 717 x_33_ + 592 x_34_ + 235 x_35_ + 398 x_36_ + 519 x_37_ + 987 x_38_ + 937 x_39_ + 12 x_40_ + 599 x_41_ + 414 x_42_ + 362 x_43_ + 818 x_44_ + 998 x_45_ + 654 x_46_ + 32 x_47_ + 469 x_48_ + 618 x_49_ + 781 x_50_ + 944 x_51_ + 499 x_52_ + 860 x_53_ + 216 x_54_ + 499 x_55_ + 695 x_56_ + 231 x_57_ + 776 x_58_ + 121 x_59_ + 703 x_60_ + 876 x_61_ + 260 x_62_ + 938 x_63_ + 643 x_64_ + 746 x_65_ + 967 x_66_ + 360 x_67_ + 630 x_68_ + 46 x_69_ + 555 x_70_ + 818 x_71_ + 52 x_72_ + 6 x_73_ + 331 x_74_ + 24 x_75_ + 328 x_76_ + 749 x_77_ + 206 x_78_ + 906 x_79_ + 346 x_80_ + 104 x_81_ + 415 x_82_ + 680 x_83_ + 187 x_84_ + 220 x_85_ + 255 x_86_ + 122 x_87_ + 51 x_88_ + 231 x_89_ + 536 x_90_ + 897 x_91_ + 727 x_92_ + 782 x_93_ + 113 x_94_ + 947 x_95_ + 206 x_96_ + 566 x_97_ + 738 x_98_ + 733 x_99_ + 891 x_100_ >= 12431
c4: 1 ss_4_ + 547 x_1_ + 399 x_2_ + 669 x_3_ + 818 x_4_ + 623 x_5_ + 164 x_6_ + 859 x_7_ + 960 x_8_ + 509 x_9_ + 365 x_10_ + 351 x_11_ + 949 x_12_ + 25 x_13_ + 197 x_14_ + 264 x_15_ + 678 x_16_ + 581 x_17_ + 500 x_18_ + 285 x_19_ + 422 x_20_ + 802 x_21_ + 200 x_22_ + 287 x_23_ + 968 x_24_ + 674 x_25_ + 379 x_26_ + 733 x_27_ + 455 x_28_ + 956 x_29_ + 967 x_30_ + 829 x_31_ + 154 x_32_ + 902 x_33_ + 240 x_34_ + 70 x_35_ + 212 x_36_ + 878 x_37_ + 160 x_38_ + 900 x_39_ + 594 x_40_ + 582 x_41_ + 365 x_42_ + 49 x_43_ + 368 x_44_ + 156 x_45_ + 68 x_46_ + 99 x_47_ + 554 x_48_ + 145 x_49_ + 319 x_50_ + 303 x_51_ + 423 x_52_ + 257 x_53_ + 348 x_54_ + 915 x_55_ + 905 x_56_ + 684 x_57_ + 562 x_58_ + 217 x_59_ + 471 x_60_ + 532 x_61_ + 334 x_62_ + 601 x_63_ + 729 x_64_ + 566 x_65_ + 886 x_66_ + 824 x_67_ + 253 x_68_ + 606 x_69_ + 618 x_70_ + 418 x_71_ + 217 x_72_ + 153 x_73_ + 725 x_74_ + 701 x_75_ + 451 x_76_ + 402 x_77_ + 372 x_78_ + 820 x_79_ + 111 x_80_ + 770 x_81_ + 205 x_82_ + 698 x_83_ + 976 x_84_ + 370 x_85_ + 449 x_86_ + 378 x_87_ + 633 x_88_ + 566 x_89_ + 240 x_90_ + 13 x_91_ + 689 x_92_ + 385 x_93_ + 319 x_94_ + 341 x_95_ + 863 x_96_ + 462 x_97_ + 630 x_98_ + 91 x_99_ + 525 x_100_ >= 12309
c5: 1 ss_5_ + 599 x_1_ + 63 x_2_ + 627 x_3_ + 495 x_4_ + 55 x_5_ + 314 x_6_ + 599 x_7_ + 374 x_8_ + 472 x_9_ + 554 x_10_ + 946 x_11_ + 583 x_12_ + 359 x_13_ + 675 x_14_ + 87 x_15_ + 563 x_16_ + 150 x_17_ + 661 x_18_ + 58 x_19_ + 523 x_20_ + 885 x_21_ + 946 x_22_ + 125 x_23_ + 544 x_24_ + 318 x_25_ + 593 x_26_ + 647 x_27_ + 299 x_28_ + 47 x_29_ + 898 x_30_ + 462 x_31_ + 502 x_32_ + 572 x_33_ + 556 x_34_ + 361 x_35_ + 385 x_36_ + 464 x_37_ + 105 x_38_ + 533 x_39_ + 83 x_40_ + 1 x_41_ + 112 x_42_ + 323 x_43_ + 14 x_44_ + 581 x_45_ + 291 x_46_ + 159 x_47_ + 108 x_48_ + 702 x_49_ + 454 x_50_ + 251 x_51_ + 385 x_52_ + 537 x_53_ + 337 x_54_ + 675 x_55_ + 787 x_56_ + 970 x_57_ + 822 x_58_ + 528 x_59_ + 782 x_60_ + 29 x_61_ + 81 x_62_ + 430 x_63_ + 957 x_64_ + 599 x_65_ + 52 x_66_ + 314 x_67_ + 180 x_68_ + 877 x_69_ + 28 x_70_ + 115 x_71_ + 483 x_72_ + 451 x_73_ + 434 x_74_ + 494 x_75_ + 849 x_76_ + 212 x_77_ + 520 x_78_ + 178 x_79_ + 354 x_80_ + 251 x_81_ + 72 x_82_ + 770 x_83_ + 806 x_84_ + 580 x_85_ + 97 x_86_ + 80 x_87_ + 821 x_88_ + 379 x_89_ + 635 x_90_ + 508 x_91_ + 988 x_92_ + 748 x_93_ + 542 x_94_ + 41 x_95_ + 451 x_96_ + 87 x_97_ + 107 x_98_ + 658 x_99_ + 636 x_100_ >= 10949
Bounds
s_1_ <= 0
s_2_ <= 0
s_3_ <= 0
s_4_ <= 0
s_5_ <= 0
ss_1_ >= 0
ss_2_ >= 0
ss_3_ >= 0
ss_4_ >= 0
ss_5_ >= 0
Binary
x_1_
x_2_
x_3_
x_4_
x_5_
x_6_
x_7_
x_8_
x_9_
x_10_
x_11_
x_12_
x_13_
x_14_
x_15_
x_16_
x_17_
x_18_
x_19_
x_20_
x_21_
x_22_
x_23_
x_24_
x_25_
x_26_
x_27_
x_28_
x_29_
x_30_
x_31_
x_32_
x_33_
x_34_
x_35_
x_36_
x_37_
x_38_
x_39_
x_40_
x_41_
x_42_
x_43_
x_44_
x_45_
x_46_
x_47_
x_48_
x_49_
x_50_
x_51_
x_52_
x_53_
x_54_
x_55_
x_56_
x_57_
x_58_
x_59_
x_60_
x_61_
x_62_
x_63_
x_64_
x_65_
x_66_
x_67_
x_68_
x_69_
x_70_
x_71_
x_72_
x_73_
x_74_
x_75_
x_76_
x_77_
x_78_
x_79_
x_80_
x_81_
x_82_
x_83_
x_84_
x_85_
x_86_
x_87_
x_88_
x_89_
x_90_
x_91_
x_92_
x_93_
x_94_
x_95_
x_96_
x_97_
x_98_
x_99_
x_100_
End
